
===== New CPLEX run =====
Instance: /home/yorig/tuner/mpils-tests/instances/miplib/easy/lotsize.mps
Config: /scratch/yorig/mpils-results-grid-ticks-10000/easy/16proc/seed-9/4_lotsize_seed-9_20260425_202405/expansion/config_param_CPXPARAM_Read_Scale_-1_iter_5.prm
========================

Selected objective sense:  MINIMIZE
Selected objective  name:  R1921
Selected RHS        name:  B
Selected bound      name:  BOUND
Version identifier: 22.1.2.0 | 2024-11-26 | 0edbb82fd
CPXPARAM_Preprocessing_Dependency                2
CPXPARAM_Read_Scale                              -1
CPXPARAM_Threads                                 8
CPXPARAM_Parallel                                1
CPXPARAM_MIP_Cuts_Cliques                        -1
CPXPARAM_Preprocessing_CoeffReduce               3
CPXPARAM_MIP_Strategy_VariableSelect             1
CPXPARAM_MIP_Cuts_FlowCovers                     1
CPXPARAM_MIP_Cuts_GUBCovers                      2
CPXPARAM_MIP_Limits_GomoryCand                   10
CPXPARAM_MIP_Cuts_MIRCut                         2
CPXPARAM_MIP_Cuts_Disjunctive                    2
CPXPARAM_MIP_Limits_AggForCut                    10
CPXPARAM_Emphasis_MIP                            4
CPXPARAM_DetTimeLimit                            10000
Tried aggregator 1 time.
MIP Presolve eliminated 595 rows and 0 columns.
MIP Presolve added 1190 rows and 0 columns.
MIP Presolve modified 10 coefficients.
Reduced MIP has 2515 rows, 2985 columns, and 7755 nonzeros.
Reduced MIP has 1195 binaries, 0 generals, 0 SOSs, and 0 indicators.
Presolve time = 0.00 sec. (4.63 ticks)
Probing fixed 0 vars, tightened 5487 bounds.
Probing time = 0.01 sec. (18.38 ticks)
Tried aggregator 2 times.
Detecting symmetries...
MIP Presolve modified 1206 coefficients.
Aggregator did 10 substitutions.
Reduced MIP has 2505 rows, 2975 columns, and 7735 nonzeros.
Reduced MIP has 1195 binaries, 0 generals, 0 SOSs, and 0 indicators.
Presolve time = 0.00 sec. (6.76 ticks)
Probing fixed 0 vars, tightened 2401 bounds.
Probing time = 0.00 sec. (6.41 ticks)
Clique table members: 190.
MIP emphasis: hidden feasible solutions.
MIP search method: dynamic search.
Parallel mode: deterministic, using up to 8 threads.
Root relaxation solution time = 0.01 sec. (9.31 ticks)

        Nodes                                         Cuts/
   Node  Left     Objective  IInf  Best Integer    Best Bound    ItCnt     Gap

      0     0   348385.3466   472                 348385.3466      882         
      0     0   582561.7294   438                   Cuts: 726     2013         
      0     0   817608.6722   695                   Cuts: 726     2926         
*     0+    0                       1.14413e+07   817608.6722            92.85%
*     0+    0                      9125816.0000   817608.6722            91.04%
      0     0   984602.4277   648  9125816.0000     Cuts: 726     3795   89.21%
      0     0  1101272.4488   704  9125816.0000     Cuts: 726     4810   87.93%
      0     0  1184763.6716   668  9125816.0000     Cuts: 726     5502   87.02%
Detecting symmetries...
*     0+    0                      2200056.0000  1184763.6716            46.15%
      0     0  1255104.7003   683  2200056.0000     Cuts: 726     6279   42.95%
*     0+    0                      1911901.0000  1255104.7003            34.35%
      0     0  1295489.5153   712  1911901.0000     Cuts: 726     7306   32.24%
      0     0  1324509.8373   768  1911901.0000     Cuts: 726     7955   30.72%
      0     0  1352962.3984   728  1911901.0000     Cuts: 726     8532   29.23%
      0     0  1374537.7952   757  1911901.0000     Cuts: 726     9537   28.11%
      0     0  1388332.3563   777  1911901.0000     Cuts: 726    10485   27.38%
      0     0  1397554.1829   791  1911901.0000     Cuts: 726    11063   26.90%
      0     0  1403338.3613   793  1911901.0000     Cuts: 726    11625   26.60%
      0     0  1409060.0443   826  1911901.0000     Cuts: 673    12205   26.30%
      0     0  1414471.3220   826  1911901.0000     Cuts: 574    12689   26.02%
      0     0  1421600.7797   831  1911901.0000     Cuts: 620    13609   25.64%
*     0+    0                      1906465.0000  1421600.7797            25.43%
      0     0  1424629.7035   819  1906465.0000     Cuts: 428    14270   25.27%
      0     0  1426570.0556   832  1906465.0000     Cuts: 374    14534   25.17%
      0     0  1428076.1069   844  1906465.0000     Cuts: 363    14819   25.09%
      0     0  1428965.6577   851  1906465.0000     Cuts: 393    15066   25.05%
      0     0  1429533.7208   864  1906465.0000     Cuts: 198    15267   25.02%
      0     0  1430177.5434   862  1906465.0000     Cuts: 243    15456   24.98%
      0     0  1432009.9386   833  1906465.0000     Cuts: 198    15685   24.89%
      0     0  1434242.9605   856  1906465.0000     Cuts: 507    15972   24.77%
      0     0  1436851.0912   851  1906465.0000     Cuts: 407    16230   24.63%
*     0+    0                      1893039.0000  1436851.0912            24.10%
      0     0  1437997.2864   858  1893039.0000     Cuts: 345    16442   24.04%
      0     0  1438795.1807   863  1893039.0000     Cuts: 277    16641   24.00%
      0     0  1439277.4834   862  1893039.0000     Cuts: 307    16774   23.97%
      0     0  1440050.2249   858  1893039.0000     Cuts: 187    16969   23.93%
      0     0  1440441.2696   859  1893039.0000     Cuts: 191    17097   23.91%
*     0+    0                      1886134.0000  1440441.2696            23.63%
      0     0  1440800.7286   863  1886134.0000     Cuts: 198    17223   23.61%

GUB cover cuts applied:  0
Cover cuts applied:  11
Implied bound cuts applied:  26
Flow cuts applied:  592
Mixed integer rounding cuts applied:  969
Flow path cuts applied:  12
Multi commodity flow cuts applied:  15
Disjunctive cuts applied:  0
Cone linearizations applied:  0

Root node processing (before b&c):
  Real time             =    6.75 sec. (10000.66 ticks)
Parallel b&c, 8 threads:
  Real time             =    0.00 sec. (0.00 ticks)
  Sync time (average)   =    0.00 sec.
  Wait time (average)   =    0.00 sec.
                          ------------
Total (root+branch&cut) =    6.75 sec. (10000.66 ticks)
Gap: 23.61%
Upper bound: 1.88613e+06
Lower bound: 1.4408e+06
End of CPLEX run. Time: 6.75479 seconds

===== New CPLEX run =====
Instance: /home/yorig/tuner/mpils-tests/instances/miplib/easy/lotsize.mps
Config: /scratch/yorig/mpils-results-grid-ticks-10000/easy/16proc/seed-9/4_lotsize_seed-9_20260425_202405/expansion/config_param_CPXPARAM_Read_Scale_1_iter_5.prm
========================

Selected objective sense:  MINIMIZE
Selected objective  name:  R1921
Selected RHS        name:  B
Selected bound      name:  BOUND
Version identifier: 22.1.2.0 | 2024-11-26 | 0edbb82fd
CPXPARAM_Preprocessing_Dependency                2
CPXPARAM_Read_Scale                              1
CPXPARAM_Threads                                 8
CPXPARAM_Parallel                                1
CPXPARAM_MIP_Cuts_Cliques                        -1
CPXPARAM_Preprocessing_CoeffReduce               3
CPXPARAM_MIP_Strategy_VariableSelect             1
CPXPARAM_MIP_Cuts_FlowCovers                     1
CPXPARAM_MIP_Cuts_GUBCovers                      2
CPXPARAM_MIP_Limits_GomoryCand                   10
CPXPARAM_MIP_Cuts_MIRCut                         2
CPXPARAM_MIP_Cuts_Disjunctive                    2
CPXPARAM_MIP_Limits_AggForCut                    10
CPXPARAM_Emphasis_MIP                            4
CPXPARAM_DetTimeLimit                            10000
Tried aggregator 1 time.
MIP Presolve eliminated 595 rows and 0 columns.
MIP Presolve added 1190 rows and 0 columns.
MIP Presolve modified 10 coefficients.
Reduced MIP has 2515 rows, 2985 columns, and 7755 nonzeros.
Reduced MIP has 1195 binaries, 0 generals, 0 SOSs, and 0 indicators.
Presolve time = 0.00 sec. (4.63 ticks)
Probing fixed 0 vars, tightened 5487 bounds.
Probing time = 0.01 sec. (18.38 ticks)
Tried aggregator 2 times.
Detecting symmetries...
MIP Presolve modified 1206 coefficients.
Aggregator did 10 substitutions.
Reduced MIP has 2505 rows, 2975 columns, and 7735 nonzeros.
Reduced MIP has 1195 binaries, 0 generals, 0 SOSs, and 0 indicators.
Presolve time = 0.00 sec. (6.76 ticks)
Probing fixed 0 vars, tightened 2401 bounds.
Probing time = 0.00 sec. (6.41 ticks)
Clique table members: 190.
MIP emphasis: hidden feasible solutions.
MIP search method: dynamic search.
Parallel mode: deterministic, using up to 8 threads.
Root relaxation solution time = 0.01 sec. (10.62 ticks)

        Nodes                                         Cuts/
   Node  Left     Objective  IInf  Best Integer    Best Bound    ItCnt     Gap

      0     0   348385.3466   472                 348385.3466      878         
      0     0   582561.7294   438                   Cuts: 726     1822         
      0     0   818485.4876   689                   Cuts: 726     2580         
*     0+    0                       1.21137e+07   818485.4876            93.24%
*     0+    0                       1.01581e+07   818485.4876            91.94%
      0     0   973491.2115   659   1.01581e+07     Cuts: 726     3329   90.42%
      0     0  1114818.2445   683   1.01581e+07     Cuts: 726     4143   89.03%
*     0+    0                      2096702.0000  1114818.2445            46.83%
      0     0  1190349.5862   672  2096702.0000     Cuts: 726     4977   43.23%
Detecting symmetries...
*     0+    0                      2084441.0000  1190349.5862            42.89%
      0     0  1249388.5051   714  2084441.0000     Cuts: 726     5835   40.06%
      0     0  1297794.1251   717  2084441.0000     Cuts: 726     6767   37.74%
      0     0  1332365.5138   742  2084441.0000     Cuts: 726     7617   36.08%
      0     0  1360185.5163   715  2084441.0000     Cuts: 726     8424   34.75%
      0     0  1378206.4392   792  2084441.0000     Cuts: 726     9218   33.88%
      0     0  1388634.9025   808  2084441.0000     Cuts: 726     9884   33.38%
      0     0  1402445.4026   802  2084441.0000     Cuts: 726    10566   32.72%
      0     0  1410971.5046   823  2084441.0000     Cuts: 726    11242   32.31%
*     0+    0                      2039883.0000  1410971.5046            30.83%
      0     0  1416855.5151   837  2039883.0000     Cuts: 726    11923   30.54%
      0     0  1420784.7442   833  2039883.0000     Cuts: 720    12884   30.35%
      0     0  1423979.1937   836  2039883.0000     Cuts: 574    13571   30.19%
*     0+    0                      1984055.0000  1423979.1937            28.23%
      0     0  1426671.9494   830  1984055.0000     Cuts: 316    14104   28.09%
      0     0  1429021.4416   841  1984055.0000     Cuts: 429    14563   27.97%
      0     0  1430003.0060   844  1984055.0000     Cuts: 258    14886   27.93%
      0     0  1431193.3559   861  1984055.0000     Cuts: 335    15213   27.87%
      0     0  1432057.9066   826  1984055.0000     Cuts: 228    15499   27.82%
      0     0  1432520.2131   839  1984055.0000     Cuts: 199    15706   27.80%
      0     0  1433105.7163   847  1984055.0000     Cuts: 180    15900   27.77%
      0     0  1433705.3989   841  1984055.0000     Cuts: 306    16168   27.74%
      0     0  1434053.0680   840  1984055.0000     Cuts: 163    16355   27.72%
      0     0  1434394.3300   841  1984055.0000     Cuts: 126    16535   27.70%
*     0+    0                      1960239.0000  1434394.3300            26.83%

GUB cover cuts applied:  0
Cover cuts applied:  12
Implied bound cuts applied:  26
Flow cuts applied:  612
Mixed integer rounding cuts applied:  964
Flow path cuts applied:  10
Multi commodity flow cuts applied:  14
Disjunctive cuts applied:  0
Cone linearizations applied:  0

Root node processing (before b&c):
  Real time             =    6.85 sec. (10006.28 ticks)
Parallel b&c, 8 threads:
  Real time             =    0.00 sec. (0.00 ticks)
  Sync time (average)   =    0.00 sec.
  Wait time (average)   =    0.00 sec.
                          ------------
Total (root+branch&cut) =    6.85 sec. (10006.28 ticks)
Gap: 26.83%
Upper bound: 1.96024e+06
Lower bound: 1.43439e+06
End of CPLEX run. Time: 6.8485 seconds
